119 48 011 1
1
862 113 1
732 114 1
651 115 1
559 116 1
723 117 1
643 118 1
601 119 1
737 108 1
651 109 1
740 110 1
685 111 1
771 112 1
579 113 1
920 114 1
652 115 1
682 116 1
744 117 1
503 118 1
606 119 1
535 108 1
610 109 1
716 110 1
583 111 1
574 112 1
769 113 1
583 114 1
569 115 1
718 116 1
782 117 1
790 118 1
791 119 1
913 108 1
767 109 1
787 110 1
638 111 1
535 112 1
636 113 1
550 114 1
678 115 1
518 116 1
660 117 1
685 118 1
698 119 1
623 108 1
1004 109 1
734 110 1
707 111 1
647 112 1
1
1
1
1
1
1
1
1
1
1
1
1
1
1
1
1
1
1
1
1
1
1
1
1
1
1
1
1
1
1
1
1
1
1
1
1
1
1
1
1
1
1
1
1
1
1
1
1
1
1
1
1
1
1
1
1
1
1
1 9 736 21 534 33 912 45 622
1 10 650 22 609 34 766 46 1003
1 11 739 23 715 35 786 47 733
1 12 684 24 582 36 637 48 706
1 13 770 25 573 37 534 49 646
1 2 861 14 578 26 768 38 635
1 3 731 15 919 27 582 39 549
1 4 650 16 651 28 568 40 677
1 5 558 17 681 29 717 41 517
1 6 722 18 743 30 781 42 659
1 7 642 19 502 31 789 43 684
1 8 600 20 605 32 790 44 697
